; benchmark generated from python API
(set-info :status unknown)
(declare-fun S_2 () Real)
(declare-fun C () Real)
(declare-fun S_4 () Real)
(declare-fun S_5 () Real)
(declare-fun A_1 () Real)
(declare-fun L_1 () Real)
(declare-fun S_3 () Real)
(declare-fun L_0 () Real)
(declare-fun A_0 () Real)
(declare-fun S_1 () Real)
(declare-fun S_0 () Real)
(declare-fun A_5 () Real)
(declare-fun L_2 () Real)
(declare-fun B () Real)
(declare-fun A_3 () Real)
(declare-fun A_4 () Real)
(declare-fun A_2 () Real)
(assert
 (let (($x39 (>= L_0 0.0)))
 (let (($x813 (>= C 5.0)))
 (let (($x8694 (<= (+ S_5 (* (- 1.0) S_4) (* (- 1.0) A_5) A_3 (* (- 1.0) B)) 0.0)))
 (let ((?x413 (* (- 1.0) S_2)))
 (let ((?x1186 (* (- 2.0) C)))
 (let ((?x271 (* (- 1.0) B)))
 (let ((?x451 (* (- 1.0) A_5)))
 (let (($x8707 (<= (+ S_5 ?x451 A_3 (* (- 1.0) A_0) ?x271 (* (- 3.0) C) L_0) 0.0)))
 (let (($x8678 (<= (+ S_5 ?x451 A_3 ?x271 (* (- 3.0) C) (* (- 1.0) S_1)) 0.0)))
 (let (($x8550 (<= (+ S_5 ?x451 A_3 ?x271 (* (- 1.0) C) (* (- 1.0) S_3)) 0.0)))
 (let (($x8698 (<= (+ S_5 ?x451 A_3 ?x271 (* (- 4.0) C) (* (- 1.0) S_0)) 0.0)))
 (let (($x1236 (<= (+ (* (- 1.0) S_5) (* (- 1.0) L_2) A_4) 0.0)))
 (let (($x2754 (<= (+ (* (- 1.0) L_1) A_1 (* (- 1.0) S_5) (* 3.0 C)) 0.0)))
 (let (($x15752 (or $x1236 $x2754 (<= (+ (* (- 1.0) S_5) (* 4.0 C) S_0) 0.0))))
 (let (($x2745 (<= (+ (* (- 1.0) L_1) A_1 (* (- 1.0) S_4) (* 2.0 C)) 0.0)))
 (let (($x6878 (or (<= (+ (* (- 1.0) L_1) A_1 C (* (- 1.0) S_3)) 0.0) (<= (+ (* 2.0 C) (* (- 1.0) S_3) S_0) 0.0))))
 (let ((?x297 (* (- 1.0) L_2)))
 (let ((?x922 (+ L_1 ?x297)))
 (let (($x10120 (<= 0.0 ?x922)))
 (let (($x5136 (<= (+ S_5 (* (- 1.0) A_2) L_2 ?x451 A_3 (* (- 1.0) C)) 0.0)))
 (let (($x2026 (<= (+ (* (- 1.0) S_5) A_2 ?x297 (* 2.0 C) ?x271) 0.0)))
 (let (($x4731 (or (<= (+ (* (- 1.0) L_1) A_1 ?x413) 0.0) (<= (+ C ?x413 S_0) 0.0))))
 (let (($x56 (= L_1 L_0)))
 (let (($x15567 (or $x56 (<= (+ L_1 (* (- 1.0) A_1) S_5 ?x451 A_3 ?x1186) 0.0))))
 (let (($x1579 (not $x56)))
 (let (($x66 (= L_2 L_1)))
 (let (($x15340 (or $x66 $x1579 (<= (+ A_1 (* (- 1.0) A_2) L_2 C (* (- 1.0) L_0)) 0.0))))
 (let (($x10125 (<= 0.0 (+ L_1 (* (- 1.0) A_1) A_2 ?x297 (* (- 1.0) C) ?x271))))
 (let (($x10173 (or $x66 $x10125 (<= (+ (* (- 1.0) A_2) L_2 (* 2.0 C) S_0 B) 0.0))))
 (let (($x2799 (= (+ (* (- 1.0) L_1) A_1 (* (- 1.0) A_2) L_2 C B) 0.0)))
 (let (($x10149 (or $x66 (<= (+ (* (- 1.0) A_2) L_2 (* (- 1.0) C) S_3 B) 0.0))))
 (let (($x15325 (or $x66 (<= (+ S_5 (* (- 1.0) A_2) L_2 (* (- 3.0) C) B) 0.0))))
 (let (($x1620 (<= (+ (* (- 1.0) L_1) A_1 (* (- 1.0) S_5) (* 3.0 C) ?x271) 0.0)))
 (let (($x1242 (<= (+ (* (- 1.0) L_1) A_1 (* (- 1.0) S_4) (* 2.0 C) ?x271) 0.0)))
 (let (($x15311 (or $x56 (<= (+ L_1 (* (- 1.0) A_1) S_5 (* (- 4.0) C) B) 0.0))))
 (let (($x15315 (or $x56 (<= (+ L_1 (* (- 1.0) A_1) S_4 (* (- 3.0) C) B) 0.0))))
 (let (($x16132 (or $x56 (<= (+ L_1 (* (- 1.0) A_1) (* (- 1.0) C) S_2 B) 0.0))))
 (let (($x10586 (or $x56 $x66 (= (+ (* (- 1.0) L_1) A_1 (* (- 1.0) A_2) L_2 C) 0.0))))
 (let (($x1260 (<= (+ (* (- 1.0) L_1) A_1 (* (- 1.0) C) (* (- 1.0) S_1) ?x271) 0.0)))
 (let ((?x355 (* (- 1.0) C)))
 (let ((?x1290 (* (- 1.0) A_0)))
 (let ((?x280 (* (- 1.0) L_1)))
 (let (($x128 (>= S_1 S_0)))
 (let (($x131 (>= S_2 S_1)))
 (let (($x134 (>= S_3 S_2)))
 (let (($x137 (>= S_4 S_3)))
 (let (($x140 (>= S_5 S_4)))
 (let (($x142 (>= A_1 A_0)))
 (let (($x144 (>= A_3 A_2)))
 (let (($x145 (>= A_4 A_3)))
 (let (($x146 (>= A_5 A_4)))
 (and (not (<= (+ A_2 ?x297) S_4)) $x146 $x145 $x144 $x142 $x140 $x137 $x134 $x131 $x128 (<= (+ A_1 ?x280) S_4) (or (not (<= 0.0 (+ ?x280 L_0))) $x56) (<= (+ ?x280 A_1 ?x1290 ?x355 ?x271 L_0) 0.0) (<= (+ ?x280 A_1 ?x413 ?x271) 0.0) (<= (+ ?x280 A_1 ?x1186 (* (- 1.0) S_0) ?x271) 0.0) $x1260 (<= (+ ?x280 A_1 C (* (- 1.0) S_3) ?x271) 0.0) $x10586 (or $x56 (<= (+ L_1 (* (- 1.0) A_1) S_1 B) 0.0)) $x16132 (or $x56 (<= 0.0 (+ A_1 (* (- 1.0) A_2) C)) (not $x66)) (or $x56 (<= (+ L_1 (* (- 1.0) A_1) C S_0 B) 0.0)) (or $x56 (<= (+ L_1 (* (- 1.0) A_1) ?x1186 S_3 B) 0.0)) $x15315 $x15311 $x1242 (or $x1620 (<= 0.0 (+ (* (- 1.0) A_4) A_3 C))) (or $x1236 $x1620) (<= (+ A_2 ?x297 ?x355 ?x413 ?x271) 0.0) (<= (+ (* (- 1.0) S_4) A_2 ?x297 C ?x271) 0.0) (or $x66 (not $x10120)) (<= (+ A_2 ?x297 (* (- 1.0) S_3) ?x271) 0.0) (<= (+ S_5 L_2 (* (- 1.0) A_4) ?x355) 0.0) $x15325 (<= (+ A_2 ?x297 ?x1186 (* (- 1.0) S_1) ?x271) 0.0) (or $x66 (<= (+ (* (- 1.0) A_2) L_2 S_2 B) 0.0)) $x10149 (<= (+ A_2 ?x297 (* (- 3.0) C) (* (- 1.0) S_0) ?x271) 0.0) (or $x66 (<= (+ S_4 (* (- 1.0) A_2) L_2 ?x1186 B) 0.0)) (or $x2799 (not $x10125)) (or $x2026 (<= 0.0 (+ (* (- 1.0) A_4) A_3 C))) (or $x66 (<= (+ (* (- 1.0) A_2) L_2 C S_1 B) 0.0)) $x10173 (<= (+ A_2 ?x297 ?x1290 ?x1186 ?x271 L_0) 0.0) $x15340 (or $x2026 (<= (+ (* (- 1.0) A_2) A_3 ?x355) 0.0)) $x15567 (<= (+ ?x1186 S_1 (* (- 1.0) S_0)) 0.0) $x4731 (or $x1236 $x2026) (or $x5136 $x10120) (<= (+ S_4 ?x1290 (* (- 4.0) C) L_0) 0.0) (<= (+ (* (- 3.0) C) S_2 (* (- 1.0) S_0)) 0.0) (<= (+ (* (- 4.0) C) S_3 (* (- 1.0) S_0)) 0.0) $x6878 (or $x2745 (<= (+ (* (- 1.0) S_4) (* 3.0 C) S_0) 0.0)) (or $x1236 (<= (+ (* (- 1.0) S_5) (* 2.0 C) S_2) 0.0)) (<= (+ S_5 (* (- 6.0) C) (* (- 1.0) S_0)) 0.0) $x15752 (<= (+ S_5 (* (- 5.0) C) (* (- 1.0) S_1)) 0.0) (<= (+ S_5 ?x1290 (* (- 5.0) C) L_0) 0.0) (<= (+ L_1 (* (- 1.0) A_1) S_5 (* (- 4.0) C)) 0.0) (<= (+ S_4 (* (- 4.0) C) (* (- 1.0) S_1)) 0.0) (<= (+ S_4 (* (- 5.0) C) (* (- 1.0) S_0)) 0.0) (or $x1236 (<= (+ (* (- 1.0) S_5) C S_3) 0.0)) (or $x1236 (<= (+ (* (- 1.0) S_5) (* 3.0 C) S_1) 0.0)) $x8698 (<= (+ L_1 (* (- 1.0) A_1) S_5 ?x451 A_3 ?x271 ?x1186) 0.0) $x8550 $x8678 $x8707 (<= (+ S_5 ?x451 A_3 ?x271 ?x1186 ?x413) 0.0) $x8694 $x813 $x39 (<= (+ S_5 L_2 ?x451) 0.0) (<= (+ ?x1290 S_0 L_0) 0.0) (<= (+ (* (- 1.0) S_4) C S_2) 0.0) (<= (+ ?x1186 S_2 (* (- 1.0) S_1)) 0.0) (<= (+ (* (- 3.0) C) S_3 (* (- 1.0) S_1)) 0.0) (<= (+ ?x1186 S_3 ?x413) 0.0) (<= (+ C (* (- 1.0) S_3) S_1) 0.0) (<= (+ (* (- 1.0) S_4) (* 2.0 C) S_1) 0.0) (<= (+ ?x1290 ?x355 S_1 L_0) 0.0) (<= (+ L_1 (* (- 1.0) A_1) S_1) 0.0) (<= (+ ?x1290 (* (- 3.0) C) S_3 L_0) 0.0) (<= (+ L_1 (* (- 1.0) A_1) ?x1186 S_3) 0.0) (<= (+ ?x1290 ?x1186 S_2 L_0) 0.0) (<= (+ L_1 (* (- 1.0) A_1) ?x355 S_2) 0.0) (<= (+ S_5 (* (- 1.0) S_4) ?x1186) 0.0) (<= (+ S_5 (* (- 3.0) C) (* (- 1.0) S_3)) 0.0) (<= (+ S_4 ?x1186 (* (- 1.0) S_3)) 0.0) (<= (+ L_1 (* (- 1.0) A_1) S_4 (* (- 3.0) C)) 0.0) (<= (+ S_5 (* (- 4.0) C) ?x413) 0.0) (<= (+ S_4 (* (- 3.0) C) ?x413) 0.0))))))))))))))))))))))))))))))))))))))))))))))))))))))
(check-sat)
